tsp_instances/TSP20/instance120.tsp
NODE_COORD_SECTION
0 77 73
1 32 124
2 194 162
3 31 101
4 13 56
5 196 74
6 2 24
7 72 10
8 132 63
9 178 130
10 137 58
11 15 25
12 166 185
13 104 136
14 31 75
15 82 138
16 68 91
17 106 64
18 99 136
19 108 164
