tsp_instances/TSP20/instance120.opt.tour
TOUR_SECTION
1
8
12
7
5
15
4
2
16
19
14
20
13
3
10
6
11
9
18
17
-1